NAME : random_14
COMMENT : 44 random nodes
TYPE : TSP
DIMENSION : 44
EDGE_WEIGHT_TYPE : EUC_2D
NODE_COORD_SECTION
1 6930 6053
2 6796 3462
3 431 7467
4 -830 1850
5 7015 998
6 -2214 4475
7 5193 1648
8 6597 7066
9 6516 -6234
10 2603 -4016
11 5934 -409
12 5890 3483
13 1158 6740
14 -2109 -2180
15 -5172 -5062
16 -2385 -2419
17 4341 4626
18 -133 3719
19 -4103 -2966
20 1591 -5752
21 5479 -1739
22 -4585 -4612
23 -1069 -5435
24 1036 1278
25 2678 2625
26 -5299 -1680
27 -611 -1826
28 -3325 -721
29 -3836 -3012
30 843 6887
31 948 -4885
32 3289 3036
33 5691 -2890
34 -2715 -5447
35 6740 1109
36 -2443 5646
37 3286 -281
38 6232 682
39 -5850 -3343
40 6287 5097
41 -2122 -5538
42 7485 -1757
43 4495 -132
44 3561 -2280
EOF